50 40 5
0 1 0
1 2 0
2 3 0
3 4 0
5 6 1
6 7 1
7 8 1
8 9 1
10 11 2
11 12 2
12 13 2
13 14 2
15 16 3
16 17 3
17 18 3
18 19 3
20 21 4
21 22 4
22 23 4
23 24 4
25 26 5
26 27 5
27 28 5
28 29 5
30 31 6
31 32 6
32 33 6
33 34 6
35 36 7
36 37 7
37 38 7
38 39 7
40 41 8
41 42 8
42 43 8
43 44 8
45 46 9
46 47 9
47 48 9
48 49 9
1 1 72
1 0 87
1 4 95
1 2 66
2 3 60 2 60
1 4 5
1 3 35
1 0 48
1 2 39
1 1 54
1 1 46
1 3 20
2 2 21 0 21
1 0 97
1 4 55
1 0 59
2 3 19 0 19
1 4 46
1 1 34
1 2 37
1 4 23
2 2 73 4 73
1 3 25
1 1 24
1 0 28
1 3 28
1 0 45
1 4 5
2 1 78 3 78
1 2 83
1 0 53
2 3 71 2 71
1 1 37
1 4 29
1 2 12
1 4 12
1 2 87
1 3 33
1 1 55
1 0 38
1 2 49
1 3 83
2 1 40 0 40
1 0 48
1 4 7
2 2 65 0 65
1 3 17
2 0 90 3 90
1 4 27
2 1 23 2 23